NAME: cuum180.tsp
TYPE: TSP
COMMENT: User-generated TSP file
DIMENSION: 180
EDGE_WEIGHT_TYPE: EUC_2D
NODE_COORD_SECTION
1 100.0 132.0
2 40.0 46.0
3 7.0 96.0
4 89.0 5.0
5 129.0 21.0
6 29.0 40.0
7 26.0 48.0
8 165.0 93.0
9 121.0 112.0
10 41.0 14.0
11 147.0 68.0
12 41.0 127.0
13 141.0 112.0
14 23.0 90.0
15 59.0 89.0
16 131.0 163.0
17 159.0 7.0
18 79.0 175.0
19 34.0 36.0
20 37.0 154.0
21 178.0 105.0
22 24.0 152.0
23 104.0 176.0
24 114.0 2.0
25 56.0 149.0
26 73.0 115.0
27 67.0 42.0
28 4.0 56.0
29 120.0 119.0
30 165.0 127.0
31 84.0 88.0
32 141.0 130.0
33 106.0 145.0
34 37.0 125.0
35 167.0 22.0
36 34.0 140.0
37 98.0 13.0
38 18.0 27.0
39 4.0 5.0
40 29.0 9.0
41 97.0 65.0
42 56.0 2.0
43 100.0 53.0
44 21.0 95.0
45 36.0 85.0
46 120.0 130.0
47 8.0 155.0
48 108.0 104.0
49 19.0 10.0
50 169.0 83.0
51 108.0 98.0
52 108.0 68.0
53 139.0 47.0
54 75.0 161.0
55 66.0 105.0
56 28.0 92.0
57 160.0 51.0
58 147.0 71.0
59 49.0 178.0
60 33.0 83.0
61 158.0 152.0
62 37.0 60.0
63 96.0 108.0
64 159.0 143.0
65 93.0 127.0
66 105.0 109.0
67 30.0 78.0
68 68.0 93.0
69 90.0 34.0
70 177.0 34.0
71 26.0 133.0
72 94.0 17.0
73 77.0 50.0
74 83.0 159.0
75 6.0 80.0
76 55.0 108.0
77 54.0 13.0
78 74.0 71.0
79 168.0 92.0
80 158.0 168.0
81 16.0 29.0
82 106.0 174.0
83 156.0 21.0
84 142.0 39.0
85 88.0 136.0
86 165.0 148.0
87 115.0 31.0
88 9.0 3.0
89 111.0 114.0
90 17.0 63.0
91 100.0 156.0
92 107.0 152.0
93 158.0 18.0
94 102.0 2.0
95 111.0 43.0
96 50.0 61.0
97 139.0 104.0
98 112.0 84.0
99 53.0 75.0
100 14.0 13.0
101 53.0 70.0
102 141.0 86.0
103 68.0 137.0
104 73.0 16.0
105 13.0 139.0
106 12.0 150.0
107 167.0 127.0
108 45.0 129.0
109 90.0 18.0
110 149.0 179.0
111 59.0 62.0
112 145.0 142.0
113 47.0 35.0
114 102.0 44.0
115 114.0 86.0
116 20.0 167.0
117 91.0 58.0
118 33.0 119.0
119 158.0 164.0
120 144.0 130.0
121 12.0 146.0
122 119.0 161.0
123 178.0 171.0
124 23.0 171.0
125 97.0 172.0
126 124.0 175.0
127 165.0 107.0
128 54.0 150.0
129 147.0 37.0
130 160.0 129.0
131 17.0 6.0
132 49.0 152.0
133 29.0 128.0
134 142.0 40.0
135 71.0 48.0
136 111.0 70.0
137 167.0 163.0
138 127.0 3.0
139 113.0 167.0
140 90.0 43.0
141 170.0 23.0
142 80.0 11.0
143 106.0 164.0
144 94.0 19.0
145 121.0 35.0
146 169.0 18.0
147 16.0 27.0
148 163.0 80.0
149 102.0 168.0
150 18.0 141.0
151 54.0 48.0
152 1.0 47.0
153 151.0 101.0
154 36.0 51.0
155 95.0 112.0
156 39.0 52.0
157 145.0 141.0
158 104.0 27.0
159 177.0 125.0
160 49.0 41.0
161 82.0 102.0
162 146.0 69.0
163 169.0 73.0
164 121.0 93.0
165 172.0 91.0
166 2.0 119.0
167 59.0 61.0
168 139.0 34.0
169 129.0 51.0
170 73.0 120.0
171 132.0 53.0
172 14.0 10.0
173 171.0 136.0
174 153.0 106.0
175 81.0 18.0
176 153.0 101.0
177 39.0 1.0
178 103.0 24.0
179 118.0 162.0
180 22.0 143.0
EOF





